% demand
num_movements = 27;
loading_factor = [1600, 1100, 1450, 1100, 1800, 1050, 1250, 1700, 1100, 1750, 1050, 2000, 1950, 900, 1450, 900, 1200, 1100, 1450, 1400, 1950, 1950, 1050, 1600, 1050, 1150, 1800];
pickup_time = [0, 0, 1, 1, 2, 2, 3, 3, 4, 5, 5, 5, 5, 6, 6, 6, 6, 6, 6, 7, 8, 8, 8, 8, 9, 9, 9];
delivery_time = [2, 1, 2, 2, 5, 5, 5, 5, 5, 6, 6, 6, 6, 7, 8, 7, 8, 7, 8, 8, 10, 9, 10, 9, 10, 10, 10];

% transporter definition
total_capacity = 7000;
num_decks = 3;
capacity = [3000, 1000, 3000];

% ways out of decks
num_ways_out = 1;
paths_out = array3d(decks, ways_out, decks, [
% ways out of deck d1
2, 3, 0, 

% ways out of deck d2
3, 0, 0, 

% ways out of deck d3
0, 0, 0,	

]);

